40
1 0 3
2 0 2
2 1 3
3 1 4
4 2 8
5 3 1
6 0 1
6 1 6
6 2 8
6 3 4
6 4 3
7 2 2
7 5 9
8 0 8
8 4 9
8 5 9
9 0 2
9 3 5
9 7 6
9 8 5
10 2 5
10 4 2
10 5 9
10 7 4
10 9 7
11 0 5
11 2 6
11 7 4
11 10 1
12 0 4
12 1 6
12 3 5
12 4 5
12 7 8
12 8 1
12 10 8
12 11 1
13 0 4
13 3 1
13 4 6
13 6 4
13 8 3
13 10 7
13 11 5
13 12 3
14 0 1
14 7 3
14 8 1
14 13 1
15 0 9
15 3 2
15 4 7
15 6 2
15 7 1
15 8 5
15 10 6
15 12 2
15 13 8
15 14 7
16 0 2
16 1 6
16 2 9
16 4 9
16 5 5
16 7 9
16 8 9
16 9 4
16 11 7
16 15 5
17 4 6
17 6 1
17 8 2
17 10 2
17 12 6
17 15 6
18 0 7
18 3 2
18 7 8
18 8 8
18 10 3
18 11 4
18 12 3
18 13 7
18 14 1
18 15 2
18 16 1
19 1 6
19 2 9
19 6 9
19 7 4
19 15 2
19 17 3
19 18 6
20 0 1
20 6 2
20 7 1
20 8 8
20 9 6
20 12 2
20 13 9
20 16 5
20 17 9
20 19 9
21 0 4
21 2 8
21 3 4
21 4 5
21 5 5
21 6 1
21 7 7
21 10 3
21 11 7
21 14 1
21 17 3
21 18 5
21 19 8
21 20 9
22 0 2
22 2 7
22 4 5
22 5 2
22 7 3
22 13 2
22 14 4
22 15 2
22 16 4
22 17 6
22 19 1
22 20 6
23 0 5
23 1 9
23 2 5
23 3 5
23 5 6
23 6 7
23 11 2
23 13 5
23 15 3
23 16 7
23 18 4
23 20 5
23 22 8
24 1 8
24 5 5
24 7 6
24 9 7
24 10 8
24 11 8
24 12 8
24 13 9
24 14 5
24 16 1
24 17 9
24 18 2
24 19 2
24 22 1
25 1 8
25 3 8
25 4 9
25 5 9
25 6 7
25 8 1
25 10 4
25 13 3
25 16 4
25 17 5
25 18 9
25 21 1
25 23 3
25 24 7
26 1 7
26 2 3
26 4 1
26 5 2
26 6 7
26 8 6
26 9 4
26 13 2
26 17 1
26 18 5
26 19 4
26 22 5
27 0 9
27 1 8
27 2 1
27 3 8
27 5 8
27 6 5
27 8 1
27 10 4
27 13 9
27 14 9
27 16 8
27 19 6
27 20 2
27 23 5
27 24 9
28 1 4
28 3 4
28 9 7
28 10 9
28 16 8
28 19 8
28 23 7
29 1 6
29 5 9
29 6 1
29 7 1
29 8 6
29 9 5
29 12 7
29 14 1
29 16 2
29 17 1
29 21 5
29 22 1
29 23 8
29 26 5
30 1 6
30 2 9
30 4 8
30 6 2
30 7 7
30 8 7
30 9 2
30 11 1
30 12 4
30 13 2
30 14 7
30 17 1
30 19 9
30 20 6
30 21 3
30 23 9
30 27 8
30 29 4
31 1 1
31 2 6
31 5 9
31 6 1
31 7 7
31 8 9
31 10 9
31 11 8
31 12 7
31 15 4
31 18 7
31 20 6
31 21 5
31 22 5
31 23 9
31 26 2
31 29 1
32 1 7
32 4 3
32 5 9
32 8 4
32 10 7
32 11 7
32 12 5
32 13 4
32 14 7
32 15 2
32 20 8
32 25 2
32 29 3
33 0 6
33 3 1
33 4 5
33 5 8
33 6 5
33 8 9
33 9 1
33 11 8
33 14 5
33 15 1
33 20 6
33 22 3
33 25 8
33 30 9
33 32 7
34 1 2
34 2 1
34 5 6
34 6 9
34 8 9
34 9 9
34 10 8
34 11 9
34 13 9
34 14 1
34 18 5
34 21 2
34 27 1
34 29 3
34 30 5
35 0 5
35 1 1
35 3 5
35 4 3
35 5 1
35 6 8
35 8 1
35 11 2
35 15 4
35 16 8
35 17 4
35 18 9
35 20 8
35 21 3
35 23 8
35 26 4
35 27 7
35 28 5
35 31 3
36 1 6
36 2 6
36 7 6
36 8 8
36 10 7
36 11 1
36 13 5
36 15 1
36 16 1
36 18 5
36 21 7
36 23 3
36 24 8
36 25 3
36 29 4
36 33 3
36 34 7
37 0 2
37 4 3
37 5 3
37 9 7
37 10 5
37 11 1
37 12 6
37 13 5
37 15 4
37 17 4
37 18 9
37 19 8
37 20 9
37 22 5
37 24 4
37 27 3
37 28 5
37 30 6
37 32 8
37 34 8
37 35 4
38 0 5
38 2 6
38 5 1
38 6 8
38 8 5
38 11 8
38 12 6
38 13 7
38 15 9
38 16 5
38 19 7
38 21 6
38 23 3
38 24 2
38 25 7
38 26 1
38 29 3
38 30 7
38 31 2
38 33 6
38 34 5
38 35 3
39 0 8
39 1 8
39 2 6
39 3 7
39 4 6
39 8 2
39 11 9
39 14 4
39 15 9
39 17 5
39 20 7
39 25 5
39 27 8
39 30 5
39 36 2
